[runlim] version:		1.10
[runlim] time limit:		311040000 seconds
[runlim] real time limit:	600 seconds
[runlim] space limit:		14000 MB
[runlim] argv[0]:		python3
[runlim] argv[1]:		cp.py
[runlim] argv[2]:		graph09
[runlim] start:			Tue Jan 20 16:25:51 2026
[runlim] main pid:		112174
[runlim] sample:		10.0 time, 10.1 real, 595.1 MB
Building CP model...
Solving CP Optimizer...
 ! --------------------------------------------------- CP Optimizer 22.1.1.0 --
 ! Minimization problem - 36140 variables, 652877 constraints
 ! Presolve      : 653795 extractables eliminated
 ! LogVerbosity         = Terse
 ! Initial process time : 5.50s (5.47s extraction + 0.04s propagation)
 !  . Log search space  : 36140.0 (before), 36140.0 (after)
 !  . Memory usage      : 118.1 MB (before), 118.1 MB (after)
 ! Using parallel search with 12 workers.
 ! ----------------------------------------------------------------------------
 !          Best Branches  Non-fixed    W       Branch decision
                        0      36140                 -
 + New bound is 0
[runlim] sample:		38.9 time, 20.1 real, 5008.8 MB
                        0      36140    1            -
 + New bound is 1
[runlim] sample:		133.8 time, 30.1 real, 3839.0 MB
[runlim] sample:		212.1 time, 40.1 real, 3931.1 MB
 *            44     3523  29.31s       5      (gap is 97.73%)
[runlim] sample:		276.0 time, 50.1 real, 4040.3 MB
[runlim] sample:		329.2 time, 60.1 real, 4155.5 MB
[runlim] sample:		405.8 time, 70.1 real, 4161.0 MB
[runlim] sample:		476.0 time, 80.1 real, 4167.8 MB
[runlim] sample:		536.1 time, 90.1 real, 4174.8 MB
[runlim] sample:		603.2 time, 100.1 real, 4179.2 MB
[runlim] sample:		675.9 time, 110.1 real, 4185.3 MB
[runlim] sample:		747.9 time, 120.1 real, 4189.3 MB
 *            42    35061  113.92s     12      (gap is 97.62%)
[runlim] sample:		810.5 time, 130.1 real, 4232.6 MB
[runlim] sample:		871.4 time, 140.1 real, 4234.5 MB
[runlim] sample:		928.3 time, 150.1 real, 4245.1 MB
[runlim] sample:		976.3 time, 160.1 real, 4286.8 MB
[runlim] sample:		1052.5 time, 170.1 real, 4292.5 MB
[runlim] sample:		1110.7 time, 180.1 real, 4299.3 MB
[runlim] sample:		1176.9 time, 190.1 real, 4312.8 MB
 *            40    55907  178.27s     12      (gap is 97.50%)
[runlim] sample:		1235.5 time, 200.1 real, 4351.0 MB
[runlim] sample:		1290.6 time, 210.1 real, 4352.4 MB
[runlim] sample:		1343.6 time, 220.1 real, 4452.0 MB
[runlim] sample:		1381.3 time, 230.1 real, 4465.0 MB
[runlim] sample:		1444.3 time, 240.1 real, 4468.9 MB
[runlim] sample:		1509.6 time, 250.1 real, 4472.8 MB
[runlim] sample:		1569.3 time, 260.1 real, 4476.0 MB
[runlim] sample:		1618.6 time, 270.1 real, 4480.8 MB
 *            38    73490  260.00s      5      (gap is 97.37%)
[runlim] sample:		1669.6 time, 280.1 real, 4515.1 MB
[runlim] sample:		1724.9 time, 290.1 real, 4516.8 MB
[runlim] sample:		1773.7 time, 300.1 real, 4521.5 MB
[runlim] sample:		1821.8 time, 310.1 real, 4524.8 MB
[runlim] sample:		1884.0 time, 320.1 real, 4534.6 MB
[runlim] sample:		1945.7 time, 330.1 real, 4535.3 MB
[runlim] sample:		2012.7 time, 340.1 real, 4535.8 MB
[runlim] sample:		2069.7 time, 350.1 real, 4537.1 MB
[runlim] sample:		2121.9 time, 360.1 real, 4538.6 MB
[runlim] sample:		2175.8 time, 370.1 real, 4542.0 MB
[runlim] sample:		2237.6 time, 380.1 real, 4546.0 MB
[runlim] sample:		2281.6 time, 390.1 real, 4550.3 MB
[runlim] sample:		2333.1 time, 400.1 real, 4554.0 MB
[runlim] sample:		2378.7 time, 410.1 real, 4594.7 MB
[runlim] sample:		2430.9 time, 420.1 real, 4596.2 MB
[runlim] sample:		2479.9 time, 430.1 real, 4598.1 MB
[runlim] sample:		2540.5 time, 440.1 real, 4600.5 MB
[runlim] sample:		2590.5 time, 450.1 real, 4602.7 MB
[runlim] sample:		2647.5 time, 460.1 real, 4605.1 MB
[runlim] sample:		2697.8 time, 470.1 real, 4610.5 MB
[runlim] sample:		2743.3 time, 480.1 real, 4613.2 MB
[runlim] sample:		2779.4 time, 490.1 real, 4613.3 MB
[runlim] sample:		2818.3 time, 500.1 real, 4613.5 MB
[runlim] sample:		2866.1 time, 510.1 real, 4613.8 MB
 *            37     110k  499.46s      1      (gap is 97.30%)
 *            36     111k  504.59s      1      (gap is 97.22%)
[runlim] sample:		2903.4 time, 520.1 real, 4673.6 MB
[runlim] sample:		2944.2 time, 530.1 real, 4680.1 MB
[runlim] sample:		2994.7 time, 540.1 real, 4688.9 MB
[runlim] sample:		3038.0 time, 550.1 real, 4704.8 MB
[runlim] sample:		3077.1 time, 560.1 real, 4714.4 MB
[runlim] sample:		3109.5 time, 570.1 real, 4717.9 MB
[runlim] sample:		3144.5 time, 580.1 real, 4722.9 MB
[runlim] sample:		3189.2 time, 590.1 real, 4773.9 MB
 *            35     150k  580.54s      4      (gap is 97.14%)
[runlim] end:			Tue Jan 20 16:35:51 2026
[runlim] status:		out of time
[runlim] result:		2
[runlim] children:		5941
[runlim] real:			600.08 seconds
[runlim] time:			3231.82 seconds
[runlim] space:			5223.7 MB
[runlim] samples:		5999
